Maximize
  NxS_e0 + NxS_e1 + NxS_e3 + NxS_e4 + NxS_e5 + NxS_e6 + NxS_e7 + NxS_e8 + NxS_e9 + NxS_e10 + NxS_e11 + NxS_e12 + NxS_e13 + NxS_e14 + NxS_e15
Subject to
  -S_BB_1 + S_e_0 = 0
  -S_BB_1 = 0
  -S_BB_2 + S_e_1 = 0
  -S_BB_2 + S_e_0 + S_e_14 = 0
  -S_BB_3 + S_e_3 = 0
  -S_BB_3 + S_e_1 = 0
  -S_BB_4 + S_e_4 = 0
  -S_BB_4 + S_e_3 + S_e_12 = 0
  -S_BB_5 + S_e_5 + S_e_6 = 0
  -S_BB_5 + S_e_4 + S_e_10 = 0
  -S_BB_6 + S_e_7 + S_e_8 = 0
  -S_BB_6 + S_e_5 = 0
  -S_BB_7 + S_e_9 = 0
  -S_BB_7 + S_e_7 = 0
  -S_BB_8 + S_e_10 + S_e_11 = 0
  -S_BB_8 + S_e_6 + S_e_8 + S_e_9 = 0
  -S_BB_9 + S_e_12 + S_e_13 = 0
  -S_BB_9 + S_e_11 = 0
  -S_BB_10 + S_e_14 + S_e_15 = 0
  -S_BB_10 + S_e_13 = 0
  -S_BB_11 = 0
  -S_BB_11 + S_e_15 = 0
  NxS_e0 - N <= 0
  -1323 S_e_0 + NxS_e0 <= 0
  -1323 S_e_0 + NxS_e0 - N >= -1323
  -1322 S_e_0 - N >= -1323
  NxS_e1 - N <= 0
  -1323 S_e_1 + NxS_e1 <= 0
  -1323 S_e_1 + NxS_e1 - N >= -1323
  -1317 S_e_1 - N >= -1323
  NxS_e3 - N <= 0
  -1323 S_e_3 + NxS_e3 <= 0
  -1323 S_e_3 + NxS_e3 - N >= -1323
  -1317 S_e_3 - N >= -1323
  NxS_e4 - N <= 0
  -1323 S_e_4 + NxS_e4 <= 0
  -1323 S_e_4 + NxS_e4 - N >= -1323
  -1302 S_e_4 - N >= -1323
  NxS_e5 - N <= 0
  -1323 S_e_5 + NxS_e5 <= 0
  -1323 S_e_5 + NxS_e5 - N >= -1323
  -651 S_e_5 - N >= -1323
  NxS_e6 - N <= 0
  -1323 S_e_6 + NxS_e6 <= 0
  -1323 S_e_6 + NxS_e6 - N >= -1323
  -651 S_e_6 - N >= -1323
  NxS_e7 - N <= 0
  -1323 S_e_7 + NxS_e7 <= 0
  -1323 S_e_7 + NxS_e7 - N >= -1323
  -971 S_e_7 - N >= -1323
  NxS_e8 - N <= 0
  -1323 S_e_8 + NxS_e8 <= 0
  -1323 S_e_8 + NxS_e8 - N >= -1323
  -1003 S_e_8 - N >= -1323
  NxS_e9 - N <= 0
  -1323 S_e_9 + NxS_e9 <= 0
  -1323 S_e_9 + NxS_e9 - N >= -1323
  -971 S_e_9 - N >= -1323
  NxS_e10 - N <= 0
  -1323 S_e_10 + NxS_e10 <= 0
  -1323 S_e_10 + NxS_e10 - N >= -1323
  -N >= -1323
  NxS_e11 - N <= 0
  -1323 S_e_11 + NxS_e11 <= 0
  -1323 S_e_11 + NxS_e11 - N >= -1323
  -1302 S_e_11 - N >= -1323
  NxS_e12 - N <= 0
  -1323 S_e_12 + NxS_e12 <= 0
  -1323 S_e_12 + NxS_e12 - N >= -1323
  -1308 S_e_12 - N >= -1323
  NxS_e13 - N <= 0
  -1323 S_e_13 + NxS_e13 <= 0
  -1323 S_e_13 + NxS_e13 - N >= -1323
  -1317 S_e_13 - N >= -1323
  NxS_e14 - N <= 0
  -1323 S_e_14 + NxS_e14 <= 0
  -1323 S_e_14 + NxS_e14 - N >= -1323
  -1318 S_e_14 - N >= -1323
  NxS_e15 - N <= 0
  -1323 S_e_15 + NxS_e15 <= 0
  -1323 S_e_15 + NxS_e15 - N >= -1323
  -1322 S_e_15 - N >= -1323
  S_e_10 + S_e_12 + S_e_14 = 1
Bounds
  0 <= NxS_e0 <= 1
  0 <= NxS_e1 <= 6
  0 <= NxS_e3 <= 6
  0 <= NxS_e4 <= 21
  0 <= NxS_e5 <= 672
  0 <= NxS_e6 <= 672
  0 <= NxS_e7 <= 352
  0 <= NxS_e8 <= 320
  0 <= NxS_e9 <= 352
  0 <= NxS_e10 <= 1323
  0 <= NxS_e11 <= 21
  0 <= NxS_e12 <= 15
  0 <= NxS_e13 <= 6
  0 <= NxS_e14 <= 5
  0 <= NxS_e15 <= 1
  0 <= N <= 1323
General
  N
Binary
  S_BB_1 S_BB_2 S_BB_3 S_BB_4 S_BB_5 S_BB_6 S_BB_7 S_BB_8 S_BB_9 S_BB_10 S_BB_11 S_e_0 S_e_1 S_e_3 S_e_4 S_e_5 S_e_6 S_e_7 S_e_8 S_e_9 S_e_10 S_e_11 S_e_12 S_e_13 S_e_14 S_e_15
End
